% File represents an instance of a Composite Structure problem to be solved by a CP framework
% Created on 2025-03-26 10:41:24.342
T = 50;
n = 16;
m = 24;
edges = [(2, 1),
(5, 6),
(9, 10),
(13, 14),
(3, 2),
(7, 6),
(10, 11),
(15, 14),
(3, 4),
(7, 8),
(11, 12),
(15, 16),
(5, 1),
(9, 5),
(9, 13),
(2, 6),
(10, 6),
(10, 14),
(3, 7),
(7, 11),
(15, 11),
(4, 8),
(8, 12),
(16, 12)];
counts = [|8, 8, 8, 14,
|8, 10, 8, 14,
|8, 16, 8, 14,
|8, 14, 8, 14,
|8, 10, 8, 18,
|8, 10, 8, 12,
|8, 14, 8, 14,
|8, 10, 8, 14,
|8, 10, 8, 24,
|8, 10, 8, 18,
|8, 10, 8, 12,
|8, 10, 8, 8,
|8, 10, 8, 18,
|8, 4, 8, 18,
|8, 10, 8, 18,
|8, 10, 8, 12|];
